(set-option :produce-unsat-assumptions true)
(declare-fun b () bool)
(declare-fun i () (_ bitvec 32))
(declare-datatypes () ((tt (t (getval int)))))
(declare-datatypes () ((customarray (mkarray (getarray (array (_ bitvec 32) tt)) (getsize (_ bitvec 32))))))
(declare-datatypes () ((totalorder (mkorder (x int)))))
(declare-datatypes () ((sortedarray (mksortedarray (getarray customarray) (getorder totalorder)))))
(declare-fun thiss () sortedarray)
(declare-fun issortedrange ((_ bitvec 32) (_ bitvec 32)) bool)
(assert (=> b (issortedrange (bvadd i #b00000000000000000000000000000001) (bvsub (getsize (getarray thiss)) #b00000000000000000000000000000001))))
(check-sat)